50
3843

577 252
393 101
323 872
302 527
663 47
92 312
150 756
473 694
481 376
369 863
273 370
160 922
209 109
447 831
642 855
469 71
244 52
97 213
753 114
112 798
425 16
544 757
436 846
527 611
422 725
413 5
940 560
247 253
141 808
110 477
887 38
541 171
525 297
886 690
38 725
333 605
188 451
175 726
474 389
906 856
32 835
864 321
823 863
958 487
214 327
213 553
387 367
389 171
160 878
710 836
